15	3	2
6108	6108	6108	
340	271	271	
85	554	1070	
538	221	262	
643	934	1252	
676	868	1334	
253	192	268	
456	419	687	
167	354	599	
776	599	1068	
654	559	969	
548	613	826	
547	980	1853	
230	447	846	
65	151	230	
96	983	1911	
